1054
39
97
162
190
220
269
329
388
410
411
412
413
414
415
416
436
458
459
460
461
462
463
464
493
524
559
625
688
716
745
756
777
791
801
843
849
854
874
875
876
877
878
879
880
881
882
888
900
912
916
919
927
936
937
938
939
940
946
947
948
949
950
951
952
953
954
955
956
957
958
959
960
961
962
963
964
976
985
991
1034
1046
1088
1095
1119
1134
1154
1155
1156
1157
1183
1186
1190
1209
1210
1211
1212
1213
1214
1221
1248
1254
1281
1282
1283
1284
1285
1286
1314
1317
1345
1376
1431
1492
1544
1595
1656
1686
1717
1764
1813
1833
1834
1835
1836
1837
1838
1839
1840
1841
1842
1843
1868
1892
1893